p edge 100 499
e 1 3
e 1 15
e 1 16
e 1 19
e 1 24
e 1 27
e 1 30
e 1 33
e 1 36
e 1 45
e 1 47
e 1 53
e 1 72
e 1 90
e 2 7
e 2 22
e 2 24
e 2 37
e 2 46
e 2 50
e 2 54
e 2 61
e 2 63
e 2 72
e 2 77
e 2 90
e 2 95
e 2 99
e 3 9
e 3 18
e 3 29
e 3 30
e 3 34
e 3 43
e 3 50
e 3 98
e 3 100
e 4 23
e 4 28
e 4 49
e 4 58
e 4 69
e 4 73
e 4 79
e 4 95
e 4 96
e 5 13
e 5 16
e 5 35
e 5 40
e 5 87
e 5 90
e 6 8
e 6 14
e 6 26
e 6 48
e 6 57
e 6 60
e 6 66
e 6 72
e 6 86
e 6 91
e 7 8
e 7 9
e 7 17
e 7 26
e 7 29
e 7 35
e 7 41
e 7 43
e 7 56
e 7 89
e 8 14
e 8 25
e 8 35
e 8 43
e 8 59
e 8 67
e 8 68
e 9 11
e 9 14
e 9 20
e 9 46
e 9 49
e 9 89
e 10 11
e 10 16
e 10 17
e 10 33
e 10 42
e 10 48
e 10 67
e 10 79
e 10 100
e 11 50
e 11 56
e 11 63
e 11 71
e 11 73
e 11 78
e 11 86
e 12 17
e 12 22
e 12 49
e 12 58
e 12 86
e 12 92
e 12 96
e 13 39
e 13 42
e 13 45
e 13 52
e 13 55
e 13 64
e 13 65
e 13 74
e 13 85
e 13 88
e 14 15
e 14 25
e 14 28
e 14 39
e 14 68
e 14 75
e 14 81
e 14 83
e 14 85
e 14 95
e 14 98
e 15 20
e 15 34
e 15 48
e 15 50
e 15 76
e 15 86
e 15 90
e 15 99
e 16 24
e 16 26
e 16 32
e 16 50
e 16 51
e 16 57
e 16 61
e 16 65
e 16 73
e 16 79
e 16 83
e 16 84
e 16 86
e 17 18
e 17 43
e 17 60
e 17 65
e 17 83
e 17 84
e 17 87
e 18 24
e 18 31
e 18 38
e 18 41
e 18 52
e 18 66
e 18 70
e 18 74
e 18 80
e 18 96
e 19 25
e 19 26
e 19 41
e 19 64
e 19 65
e 19 75
e 19 92
e 19 96
e 20 28
e 20 33
e 20 43
e 20 50
e 20 55
e 20 71
e 20 81
e 20 82
e 20 94
e 20 95
e 21 28
e 21 31
e 21 43
e 21 45
e 21 73
e 21 75
e 21 97
e 21 100
e 22 32
e 22 35
e 22 48
e 22 52
e 22 86
e 22 93
e 22 96
e 22 97
e 23 26
e 23 44
e 23 45
e 23 48
e 23 53
e 23 88
e 23 89
e 24 26
e 24 30
e 24 35
e 24 40
e 24 53
e 24 69
e 24 79
e 24 96
e 24 99
e 25 31
e 25 42
e 25 44
e 25 75
e 25 78
e 25 79
e 25 91
e 25 93
e 26 31
e 26 41
e 26 42
e 26 44
e 26 50
e 26 53
e 26 60
e 26 64
e 26 87
e 26 99
e 27 40
e 27 48
e 27 51
e 27 57
e 27 76
e 28 32
e 28 35
e 28 57
e 28 59
e 28 65
e 28 69
e 28 73
e 28 74
e 28 84
e 28 87
e 28 89
e 28 96
e 29 35
e 29 62
e 29 65
e 29 93
e 29 97
e 29 98
e 29 100
e 30 31
e 30 58
e 30 64
e 30 71
e 30 92
e 31 53
e 31 73
e 31 78
e 31 96
e 32 41
e 32 59
e 32 72
e 32 76
e 32 83
e 33 35
e 33 48
e 33 51
e 33 57
e 33 73
e 33 97
e 34 37
e 34 49
e 34 55
e 34 75
e 34 76
e 34 89
e 34 93
e 34 94
e 34 97
e 35 38
e 35 44
e 35 47
e 35 48
e 35 51
e 35 64
e 35 72
e 35 94
e 36 38
e 36 39
e 36 47
e 36 50
e 36 61
e 36 63
e 36 67
e 36 79
e 36 94
e 37 40
e 37 45
e 37 49
e 37 59
e 37 68
e 37 98
e 38 41
e 38 43
e 38 51
e 38 61
e 38 79
e 38 89
e 38 91
e 38 94
e 39 43
e 39 47
e 39 56
e 39 77
e 39 96
e 40 42
e 40 45
e 40 46
e 40 78
e 40 83
e 41 66
e 41 81
e 41 88
e 41 90
e 42 47
e 42 50
e 42 54
e 42 75
e 42 85
e 43 59
e 43 60
e 43 65
e 43 73
e 43 74
e 43 75
e 43 81
e 44 59
e 44 64
e 44 67
e 44 74
e 45 55
e 45 64
e 45 65
e 45 80
e 45 85
e 45 93
e 45 98
e 46 56
e 46 61
e 46 62
e 46 88
e 46 95
e 46 97
e 46 98
e 47 61
e 47 63
e 47 66
e 47 79
e 48 50
e 48 58
e 48 61
e 48 65
e 48 66
e 48 76
e 48 77
e 48 86
e 48 90
e 48 99
e 49 53
e 49 54
e 49 58
e 49 67
e 49 76
e 49 90
e 49 96
e 50 55
e 50 65
e 50 81
e 51 77
e 52 80
e 52 82
e 52 85
e 52 93
e 53 97
e 54 73
e 54 76
e 54 91
e 55 71
e 55 75
e 55 89
e 56 58
e 56 60
e 56 64
e 56 70
e 56 72
e 56 75
e 56 83
e 56 85
e 56 97
e 56 98
e 57 68
e 57 77
e 58 71
e 58 76
e 58 87
e 58 99
e 59 69
e 59 89
e 60 81
e 60 84
e 60 89
e 60 100
e 61 83
e 61 91
e 61 92
e 61 99
e 62 72
e 63 69
e 63 70
e 63 71
e 63 72
e 63 75
e 63 84
e 63 92
e 65 67
e 66 69
e 66 79
e 66 81
e 66 87
e 66 89
e 66 92
e 67 73
e 67 76
e 67 95
e 67 96
e 67 99
e 68 69
e 68 81
e 68 86
e 68 94
e 68 95
e 68 100
e 69 83
e 70 88
e 71 72
e 72 95
e 72 96
e 73 76
e 73 81
e 73 91
e 73 97
e 74 81
e 74 93
e 75 85
e 75 89
e 75 96
e 75 100
e 76 99
e 77 82
e 77 95
e 77 98
e 77 99
e 78 84
e 78 88
e 78 90
e 78 91
e 78 99
e 79 90
e 79 92
e 79 93
e 80 99
e 82 94
e 82 99
e 83 90
e 83 93
e 84 89
e 84 93
e 85 87
e 85 88
e 85 90
e 85 98
e 86 89
e 88 97
e 88 100
e 89 97
e 90 99
e 91 93
e 91 97
e 95 99
e 97 98
